
        $ From http://www.csplib.org/Problems/prob009/data/helmut.pdf
        $ Problem number 50
        $ Sequence length : 25
        language ESSENCE' 1.0
        letting sizemaster be 213
        letting sizes be sequence(3,5,6,7,13,16,17,20,21,23,24,25,26,28,31,35,36,47,49,56,58,74,76,81,90)
        